J=3;
K=3;
E=[20, 18, 5];
A=[0.5, 0.3, 1];
G=[0, 0, 0];
F=[5, 7, 6];
V=[0.1, 0.125, 0.15];
P_inf=[50, 80, 40];
P_sup=[300, 200, 140];
Sup=[180, 100, 100];
Inf=[300, 150, 100];
P0=[0, 0, 0];
D=[150, 500, 400];
R=[15, 50, 40];
